p cnf 41 29
-1 34 0 
-2 34 0 
-3 18 34 0 
-4 34 0 
-5 34 0 
-4 -6 34 0 
-7 34 0 
-8 30 -9 20 35 0 
-10 36 0 
-11 37 0 
-12 34 0 
-13 34 0 
-14 37 0 
-15 37 0 
-16 -17 34 0 
-6 34 0 
-18 3 -19 -20 9 38 0 
-21 38 0 
-21 37 0 
-22 31 -8 30 -23 -24 39 -28 0 
-25 40 0 
-26 41 0 
-27 35 0 
-28 34 0 
-29 34 0 
-30 8 -5 34 0 
-31 22 -12 34 0 
-31 22 -32 -29 34 0 
-33 -2 34 0 
